\* Problem: Unknown *\

Maximize
 obj: + xp_0_0 + xp_0_1 + xp_0_2 + xp_0_3 + xp_0_4 + xp_0_5 + xp_0_6
 + xp_1_0 + xp_1_1 + xp_2_0 + xp_2_1 + xp_2_2 + xp_2_3 + xp_2_4 + xp_3_0
 + xp_3_1 + xp_3_2 + xp_3_3 + xp_3_4 + xp_4_0 + xp_5_0 + xp_5_1 + xp_6_0
 + xp_6_1 + xp_6_2 + xp_6_3 + xp_7_0 + xp_7_1 + xp_8_0 + xp_9_0
 + xp_10_0 + xp_11_0 + xp_11_1 + xp_11_2 + xp_11_3 + xp_12_0 + xp_12_1
 + xp_13_0 + xp_13_1 + xp_14_0 + xp_14_1 + xp_15_0 + xp_15_1 + xp_16_0
 + xp_17_0 + xp_17_1 + xp_17_2 + xp_17_3 + xp_17_4 + xp_17_5 + xp_18_0
 + xp_18_1 + xp_18_2 + xp_18_3 + xp_19_0 + xp_19_1 + xp_19_2 + xp_19_3
 + xp_19_4 + xp_19_5 + xp_20_0 + xp_20_1 + xp_20_2 + xp_20_3 + xp_21_0
 + xp_21_1 + xp_21_2 + xp_21_3 + xp_22_0 + xp_22_1 + xp_22_2 + xp_22_3
 + xp_22_4 + xp_22_5 + xp_23_0 + xp_23_1

Subject To
 r_1: 0 xp_0_0 <= 29.7154017857143
 r_2: + xp_22_4 + xp_18_1 + xp_17_4 + xp_15_1 + xp_12_1 + xp_2_2
 <= 28.4612068965517
 r_3: + xp_18_3 + xp_6_2 <= 30
 r_4: + xp_17_2 + xp_15_0 + xp_3_3 <= 30
 r_5: + xp_18_0 <= 28.3056478405316
 r_6: + xp_19_3 + xp_18_2 <= 30
 r_7: + xp_20_3 <= 29.7154017857143
 r_8: + xp_22_2 + xp_11_1 + xp_6_3 + xp_5_1 + xp_3_4 + xp_3_2 + xp_2_3
 <= 28.4612068965517
 r_9: + xp_11_3 + xp_3_1 <= 30
 r_10: + xp_17_5 + xp_3_0 <= 30
 r_11: + xp_18_2 + xp_11_2 <= 28.3056478405316
 r_12: + xp_11_0 + xp_3_3 <= 30
 r_13: 0 xp_0_0 <= 30
 r_14: + xp_21_2 + xp_19_2 + xp_14_0 + xp_0_3 + xp_0_1
 <= 28.4612068965517
 r_15: + xp_21_0 <= 29.7154017857143
 r_16: + xp_22_1 + xp_21_1 + xp_19_5 + xp_0_6 + xp_0_4 + xp_0_2
 <= 29.7154017857143
 r_17: + xp_0_0 <= 28.3056478405316
 r_18: + xp_19_3 + xp_4_0 <= 29.7154017857143
 r_19: + xp_19_0 <= 29.7154017857143
 r_20: + xp_21_3 + xp_19_4 + xp_19_1 + xp_14_1 + xp_0_5
 <= 29.7154017857143
 r_21: + xp_20_1 <= 28.4612068965517
 r_22: + xp_21_2 + xp_7_1 <= 28.4612068965517
 r_23: + xp_22_4 + xp_22_3 + xp_22_2 + xp_17_4 + xp_15_1 + xp_3_4
 <= 28.4612068965517
 r_24: + xp_6_3 + xp_6_1 + xp_3_2 + xp_0_5 + xp_0_3 <= 28.4612068965517
 r_25: 0 xp_0_0 <= 28.4612068965517
 r_26: + xp_18_1 + xp_0_1 <= 28.3056478405316
 r_27: + xp_11_1 <= 28.4612068965517
 r_28: + xp_20_3 + xp_19_2 <= 28.4612068965517
 r_29: + xp_20_2 <= 29.7154017857143
 r_30: + xp_2_0 <= 28.4612068965517
 r_31: + xp_18_3 + xp_6_2 + xp_3_1 + xp_2_4 <= 30
 r_32: + xp_2_1 <= 30
 r_33: + xp_11_3 + xp_2_2 <= 30
 r_34: + xp_19_4 + xp_2_3 <= 30
 r_35: 0 xp_0_0 <= 29.7154017857143
 r_36: + xp_9_0 <= 28.4612068965517
 r_37: + xp_21_1 + xp_13_1 + xp_0_6 <= 30
 r_38: + xp_1_1 <= 30
 r_39: + xp_19_5 + xp_17_4 + xp_17_3 + xp_15_1 + xp_3_4 + xp_0_4 <= 30
 r_40: + xp_0_2 <= 28.3056478405316
 r_41: + xp_12_0 + xp_2_4 <= 28.4612068965517
 r_42: + xp_21_1 <= 30
 r_43: + xp_16_0 <= 30
 r_44: + xp_23_1 <= 30
 r_45: + xp_12_1 + xp_3_2 + xp_3_1 <= 30
 r_46: + xp_18_3 + xp_0_6 + xp_0_5 + xp_0_3 <= 28.3056478405316
 r_47: + xp_22_5 + xp_13_1 <= 30
 r_48: + xp_13_0 <= 30
 r_49: + xp_17_1 <= 30
 r_50: 0 xp_0_0 <= 28.3056478405316
 r_51: + xp_1_1 <= 30
 r_52: + xp_8_0 <= 30
 r_53: + xp_1_0 <= 30
 r_54: + xp_0_4 <= 28.3056478405316
 r_55: + xp_12_1 <= 30
 r_56: + xp_19_5 <= 30
 r_57: + xp_22_1 <= 28.3056478405316
 r_58: + xp_22_3 + xp_6_1 + xp_5_0 <= 28.3056478405316
 r_59: + xp_22_0 + xp_17_3 <= 28.3056478405316
 r_60: + xp_23_1 + xp_6_0 <= 28.3056478405316
 r_61: + xp_23_0 + xp_22_5 + xp_17_1 <= 28.3056478405316
 r_62: + xp_17_0 <= 28.3056478405316
 r_63: + xp_22_4 + xp_17_4 + xp_17_2 + xp_11_2 + xp_6_2
 <= 28.3056478405316
 r_64: + xp_22_2 + xp_17_5 + xp_6_3 + xp_5_1 <= 28.3056478405316
 r_65: + xp_20_3 + xp_20_1 + xp_14_1 + xp_7_1 + xp_2_1 + xp_0_5
 <= 28.4612068965517
 r_66: + xp_21_3 + xp_20_2 + xp_19_4 + xp_7_0 <= 30
 r_67: + xp_19_1 + xp_10_0 <= 30
 r_68: + xp_20_0 <= 29.7154017857143

Bounds
 0 <= xp_0_0 <= 27.7896866765608
 0 <= xp_0_1 <= 9.7655527556484
 0 <= xp_0_2 <= 12.0863917821015
 0 <= xp_0_3 <= 4.37038890754998
 0 <= xp_0_4 <= 3.34561396700154
 0 <= xp_0_5 <= 1.02477494054844
 0 <= xp_0_6 <= 3.34561396700154
 0 <= xp_1_0 <= 18.2551753302456
 0 <= xp_1_1 <= 16.3060875453498
 0 <= xp_2_0 <= 21.9022090419901
 0 <= xp_2_1 <= 0.914262619990445
 0 <= xp_2_2 <= 5.17413920698243
 0 <= xp_2_3 <= 2.74278785997134
 0 <= xp_2_4 <= 3.34561396700154
 0 <= xp_3_0 <= 21.2993963174158
 0 <= xp_3_1 <= 5.79703899781465
 0 <= xp_3_2 <= 0.612856257703276
 0 <= xp_3_3 <= 3.34561396700154
 0 <= xp_3_4 <= 0.612856257703276
 0 <= xp_4_0 <= 25.7200095818384
 0 <= xp_5_0 <= 19.2900071863788
 0 <= xp_5_1 <= 6.4300023954596
 0 <= xp_6_0 <= 8.68050323387046
 0 <= xp_6_1 <= 2.89350107795682
 0 <= xp_6_2 <= 8.68050323387046
 0 <= xp_6_3 <= 2.89350107795682
 0 <= xp_7_0 <= 16.6376311982517
 0 <= xp_7_1 <= 5.54587706608391
 0 <= xp_8_0 <= 19.9330074259248
 0 <= xp_9_0 <= 18.4862568869464
 0 <= xp_10_0 <= 18.4862568869464
 0 <= xp_11_0 <= 23.4192977690108
 0 <= xp_11_1 <= 10.0368419010046
 0 <= xp_11_2 <= 6.69122793400308
 0 <= xp_11_3 <= 13.3824558680062
 0 <= xp_12_0 <= 15.1908806592733
 0 <= xp_12_1 <= 2.17012580846762
 0 <= xp_13_0 <= 12.6590672160611
 0 <= xp_13_1 <= 4.21968907202036
 0 <= xp_14_0 <= 8.0375029943245
 0 <= xp_14_1 <= 8.0375029943245
 0 <= xp_15_0 <= 13.9249739376672
 0 <= xp_15_1 <= 1.98928199109531
 0 <= xp_16_0 <= 15.2712556892166
 0 <= xp_17_0 <= 27.9001989971188
 0 <= xp_17_1 <= 4.48090122810798
 0 <= xp_17_2 <= 2.24045061405399
 0 <= xp_17_3 <= 2.24045061405399
 0 <= xp_17_4 <= 3.34561396700154
 0 <= xp_17_5 <= 4.48090122810798
 0 <= xp_18_0 <= 22.7260464076805
 0 <= xp_18_1 <= 3.99865104844851
 0 <= xp_18_2 <= 14.0354929494531
 0 <= xp_18_3 <= 1.99932552422425
 0 <= xp_19_0 <= 28.7039559877791
 0 <= xp_19_1 <= 5.81713275530046
 0 <= xp_19_2 <= 1.93904425176682
 0 <= xp_19_3 <= 1.93904425176682
 0 <= xp_19_4 <= 1.93904425176682
 0 <= xp_19_5 <= 1.93904425176682
 0 <= xp_20_0 <= 27.0964486976863
 0 <= xp_20_1 <= 7.02276489567707
 0 <= xp_20_2 <= 5.51572639301329
 0 <= xp_20_3 <= 1.83857546433776
 0 <= xp_21_0 <= 30
 0 <= xp_21_1 <= 4.85263239598152
 0 <= xp_21_2 <= 3.23508826398768
 0 <= xp_21_3 <= 1.61754413199384
 0 <= xp_22_0 <= 26.2525108832822
 0 <= xp_22_1 <= 1.41660655713573
 0 <= xp_22_2 <= 1.41660655713573
 0 <= xp_22_3 <= 4.76222052413727
 0 <= xp_22_4 <= 1.41660655713573
 0 <= xp_22_5 <= 2.83321311427145
 0 <= xp_23_0 <= 20.4654886536848
 0 <= xp_23_1 <= 17.6322755394133

End
